COLUMNS

passenger_count
pickup_ID
dropoff_ID
request_time_sec
pickup_district
dropoff_district
LDuals
IDuals
vehicle_ID
pick_position
drop_position

REQUESTS_INFO
1      815       484       30668     290       189       148       148       154       1         4         
3      908       654       30642     290       189       301       301       170       1         2         
1      929       925       30657     290       290       191       191       218       1         2         
3      860       622       30553     290       280       320       320       233       1         2         
3      335       236       30675     119       87        217       217       294       1         2         
4      887       909       30688     290       290       227       227       317       1         2         
1      969       675       30646     290       189       126       126       322       1         4         
3      350       497       30618     127       999       231       231       345       1         2         
1      505       697       30641     52        189       196       196       365       1         2         
3      408       523       30672     299       52        183       183       387       1         2         
3      1023      875       30677     291       291       210       210       407       1         2         
3      1088      1349      30505     291       999       347       347       420       1         2         
1      351       346       30662     52        299       186       186       426       1         2         
1      410       651       30677     52        189       166       166       452       1         4         
1      791       580       30672     290       189       149       149       466       1         4         
1      743       504       30686     290       52        100       100       480       1         3         
1      851       626       30639     291       189       214       214       518       1         3         
3      1109      530       30647     291       189       248       248       519       1         2         
1      1004      652       30541     291       189       360       360       523       1         2         
1      690       624       30672     131       189       134       134       532       1         2         
1      355       600       30657     119       280       235       235       556       1         2         
3      817       393       30621     290       52        257       257       579       1         2         
1      908       717       30664     290       189       225       225       603       1         3         
3      749       81        30639     290       98        191       191       629       1         3         
1      421       10        30685     168       98        110       110       640       1         3         
1      838       652       30686     290       189       170       170       700       1         2         
2      963       892       30582     50        291       295       295       707       1         2         
1      663       692       30651     131       280       194       194       710       1         2         
3      715       675       30636     131       189       172       172       717       1         2         
1      841       649       30583     290       189       281       281       731       1         5         
3      851       716       30578     291       189       275       275       805       1         2         
1      804       859       30646     291       290       211       211       827       1         2         
1      791       535       30671     290       189       128       128       873       1         2         
1      886       727       30621     290       290       263       263       878       1         2         
2      886       1143      30663     290       84        255       255       884       1         3         
1      905       652       30627     290       189       159       159       886       1         4         
1      917       627       30638     291       189       220       220       915       1         2         
2      679       626       30636     290       189       189       189       938       1         2         
3      1109      530       30647     291       189       248       248       951       1         3         
2      839       945       30588     290       50        299       299       954       1         2         
3      937       1263      30588     291       192       266       266       958       1         2         
3      1023      875       30677     291       291       210       210       980       1         2         
1      750       722       30669     999       290       193       193       993       1         3         
4      981       358       30524     291       168       364       364       1058      1         2         
1      354       522       30685     119       52        193       193       1075      1         2         
1      840       925       30687     290       290       169       169       1102      1         3         
1      275       328       30658     87        299       190       190       1106      1         3         
1      874       644       30683     291       131       161       161       1117      1         3         
1      989       652       30687     50        189       187       187       1123      1         4         
1      924       859       30667     290       290       153       153       1154      1         2         
2      463       970       30678     168       290       130       130       1157      1         4         
1      914       650       30672     291       189       155       155       1169      1         4         
1      914       697       30676     291       189       151       151       1169      2         5         
1      949       1180      30682     290       84        194       194       1180      1         2         
1      939       673       30667     291       189       185       185       1216      1         3         
1      972       286       30665     290       299       200       200       1234      1         4         
2      970       624       30661     290       189       224       224       1234      2         3         
3      983       652       30508     291       189       363       363       1252      1         2         
1      970       629       30656     290       189       221       221       1269      1         3         
1      852       602       30630     291       189       172       172       1271      1         3         
3      947       984       30653     290       291       232       232       1287      1         2         
1      1053      924       30673     84        290       224       224       1356      1         2         
2      536       116       30661     189       9         118       118       1769      1         3         
1      840       916       30645     290       291       168       168       1874      1         4         
1      236       48        30633     87        98        151       151       1920      1         3         
2      908       654       30642     290       189       266       266       1947      1         3         
3      737       699       30676     189       290       125       125       1949      1         2         
1      254       158       30670     87        174       134       134       1951      1         2         
2      970       1264      30664     290       192       128       128       1972      1         3         
1      444       577       30654     168       189       133       133       1987      1         2         
1      308       417       30600     127       100       225       225       1996      1         2         
1      317       291       30526     277       87        381       381       1998      1         2         
1      191       137       30690     266       286       0         0         0         0         0         
3      369       529       30690     52        189       0         0         0         0         0         
2      369       529       30690     52        189       0         0         0         0         0         
1      133       19        30691     9         98        0         0         0         0         0         
1      511       676       30691     199       189       0         0         0         0         0         
1      1132      905       30691     291       290       0         0         0         0         0         
1      533       232       30691     199       266       0         0         0         0         0         
3      442       811       30691     168       290       0         0         0         0         0         
1      702       82        30692     290       98        0         0         0         0         0         
1      527       442       30693     52        168       0         0         0         0         0         
1      336       268       30693     277       299       0         0         0         0         0         
1      894       1434      30693     291       129       0         0         0         0         0         
1      929       11        30693     290       999       0         0         0         0         0         
2      439       506       30693     189       189       0         0         0         0         0         
3      439       506       30693     189       189       0         0         0         0         0         
3      47        651       30693     98        189       0         0         0         0         0         
3      47        651       30693     98        189       0         0         0         0         0         
1      527       439       30694     52        189       0         0         0         0         0         
4      757       692       30695     131       280       0         0         0         0         0         
1      486       629       30695     199       189       0         0         0         0         0         
1      464       139       30696     168       57        0         0         0         0         0         
1      534       534       30696     199       199       0         0         0         0         0         
1      31        116       30696     9         9         0         0         0         0         0         
3      487       552       30696     199       189       0         0         0         0         0         
1      325       410       30696     299       52        0         0         0         0         0         
1      556       327       30696     199       299       0         0         0         0         0         
3      487       552       30696     199       189       0         0         0         0         0         
1      608       11        30697     189       999       0         0         0         0         0         
1      499       108       30697     52        178       0         0         0         0         0         
2      884       697       30697     290       189       0         0         0         0         0         
2      723       500       30697     290       52        0         0         0         0         0         
1      136       307       30698     286       127       0         0         0         0         0         
2      462       550       30699     189       189       0         0         0         0         0         
1      597       716       30699     131       189       0         0         0         0         0         
1      527       532       30700     52        199       0         0         0         0         0         
1      545       134       30700     52        9         0         0         0         0         0         
1      285       415       30700     299       100       0         0         0         0         0         
3      851       527       30700     291       52        0         0         0         0         0         
1      628       578       30700     189       189       0         0         0         0         0         
1      735       602       30701     131       189       0         0         0         0         0         
1      574       409       30701     189       52        0         0         0         0         0         
1      984       252       30701     291       206       0         0         0         0         0         
2      556       10        30701     199       98        0         0         0         0         0         
1      534       671       30701     199       280       0         0         0         0         0         
3      556       10        30701     199       98        0         0         0         0         0         
2      1167      1225      30702     291       192       0         0         0         0         0         
1      884       654       30702     290       189       0         0         0         0         0         
2      508       289       30702     199       127       0         0         0         0         0         
2      61        535       30702     98        189       0         0         0         0         0         
1      527       560       30702     52        189       0         0         0         0         0         
1      748       19        30702     290       98        0         0         0         0         0         
1      695       527       30703     189       52        0         0         0         0         0         
1      772       116       30703     290       9         0         0         0         0         0         
1      488       604       30703     199       189       0         0         0         0         0         
1      818       827       30703     290       291       0         0         0         0         0         
1      349       674       30703     127       189       0         0         0         0         0         
1      526       461       30704     52        189       0         0         0         0         0         
1      598       624       30704     189       189       0         0         0         0         0         
1      464       558       30704     168       189       0         0         0         0         0         
1      656       627       30705     290       189       0         0         0         0         0         
1      549       413       30705     52        52        0         0         0         0         0         
1      372       533       30705     119       199       0         0         0         0         0         
1      1069      335       30705     291       119       0         0         0         0         0         
1      607       461       30705     189       189       0         0         0         0         0         
1      417       578       30705     100       189       0         0         0         0         0         
1      907       377       30705     290       168       0         0         0         0         0         
1      582       527       30705     189       52        0         0         0         0         0         
1      1445      375       30706     129       119       0         0         0         0         0         
1      191       268       30706     266       299       0         0         0         0         0         
1      666       593       30706     131       52        0         0         0         0         0         
1      152       647       30706     9         280       0         0         0         0         0         
3      1320      1341      30706     129       129       0         0         0         0         0         
1      668       738       30707     280       189       0         0         0         0         0         
3      1128      1010      30707     291       290       0         0         0         0         0         
2      1128      1010      30707     291       290       0         0         0         0         0         
3      627       1207      30707     189       192       0         0         0         0         0         
3      627       1207      30707     189       192       0         0         0         0         0         
1      606       768       30707     189       290       0         0         0         0         0         
1      698       748       30707     189       290       0         0         0         0         0         
1      478       545       30708     52        52        0         0         0         0         0         
1      488       626       30708     199       189       0         0         0         0         0         
1      703       122       30708     290       54        0         0         0         0         0         
1      411       675       30708     52        189       0         0         0         0         0         
1      549       407       30708     52        299       0         0         0         0         0         
3      1066      526       30709     291       52        0         0         0         0         0         
1      1010      673       30709     290       189       0         0         0         0         0         
1      532       675       30709     199       189       0         0         0         0         0         
3      1129      1023      30709     291       291       0         0         0         0         0         
1      1129      1010      30709     291       290       0         0         0         0         0         
1      312       48        30709     87        98        0         0         0         0         0         
1      726       698       30709     290       189       0         0         0         0         0         
2      506       19        30709     189       98        0         0         0         0         0         
1      582       416       30709     189       100       0         0         0         0         0         
1      768       557       30710     290       189       0         0         0         0         0         
1      527       335       30710     52        119       0         0         0         0         0         
1      849       662       30710     291       131       0         0         0         0         0         
3      813       699       30711     290       290       0         0         0         0         0         
1      727       679       30711     290       290       0         0         0         0         0         
1      526       790       30711     52        290       0         0         0         0         0         
1      771       1218      30711     290       84        0         0         0         0         0         
1      1024      1148      30711     291       291       0         0         0         0         0         
2      813       699       30711     290       290       0         0         0         0         0         
1      415       628       30712     100       189       0         0         0         0         0         
1      632       906       30712     189       290       0         0         0         0         0         
1      669       648       30712     280       189       0         0         0         0         0         
1      605       577       30712     189       189       0         0         0         0         0         
1      1001      134       30713     291       9         0         0         0         0         0         
1      527       903       30713     52        290       0         0         0         0         0         
1      161       355       30713     178       119       0         0         0         0         0         
3      308       577       30713     127       189       0         0         0         0         0         
3      308       577       30713     127       189       0         0         0         0         0         
1      937       980       30714     291       291       0         0         0         0         0         
1      662       668       30714     131       280       0         0         0         0         0         
1      474       455       30714     52        52        0         0         0         0         0         
1      596       497       30715     131       999       0         0         0         0         0         
1      272       116       30715     127       9         0         0         0         0         0         
2      556       116       30715     199       9         0         0         0         0         0         
1      549       484       30715     52        189       0         0         0         0         0         
1      549       579       30715     52        189       0         0         0         0         0         
1      674       579       30715     189       189       0         0         0         0         0         
1      980       596       30715     291       131       0         0         0         0         0         
3      828       621       30715     291       280       0         0         0         0         0         
3      10        257       30715     98        87        0         0         0         0         0         
3      828       621       30715     291       280       0         0         0         0         0         
3      10        257       30715     98        87        0         0         0         0         0         
1      604       622       30716     189       280       0         0         0         0         0         
1      510       605       30716     199       189       0         0         0         0         0         
1      926       669       30716     290       280       0         0         0         0         0         
2      630       512       30717     189       199       0         0         0         0         0         
3      630       512       30717     189       199       0         0         0         0         0         
1      374       511       30717     119       199       0         0         0         0         0         
1      811       605       30717     290       189       0         0         0         0         0         
1      507       31        30718     189       9         0         0         0         0         0         
2      216       720       30718     178       290       0         0         0         0         0         
1      749       461       30718     290       189       0         0         0         0         0         
1      960       1090      30718     291       291       0         0         0         0         0         
1      582       10        30719     189       98        0         0         0         0         0         
1      1162      908       30719     84        290       0         0         0         0         0         
2      628       579       30719     189       189       0         0         0         0         0         
1      864       11        30719     290       999       0         0         0         0         0         
1      849       603       30719     291       189       0         0         0         0         0         
2      556       547       30719     199       52        0         0         0         0         0         
1      745       415       30719     290       100       0         0         0         0         0         
1      353       431       30719     119       52        0         0         0         0         0         
2      700       782       30719     290       291       0         0         0         0         0         
